encoding rcpsp/j30.sm/j3039_1.sm nv: 88236 nc: 184732 enctime: 1.27
encoding rcpsp/j30.sm/j3039_1.sm nv: 31806 nc: 65712 enctime: 0.38
c File: j3039_1.smnaive.wcnf
c optimal
c final solution cost: 55
c CPU time: 0.303286
s OPTIMUM FOUND

c File: j3039_1.sm.wcnf
c optimal
c final solution cost: 55
c CPU time: 0.063395
s OPTIMUM FOUND


encoding rcpsp/j30.sm/j3039_2.sm nv: 66825 nc: 142897 enctime: 0.95
encoding rcpsp/j30.sm/j3039_2.sm nv: 23085 nc: 48505 enctime: 0.27
c File: j3039_2.smnaive.wcnf
c optimal
c final solution cost: 54
c CPU time: 0.246401
s OPTIMUM FOUND

c File: j3039_2.sm.wcnf
c optimal
c final solution cost: 54
c CPU time: 0.048323
s OPTIMUM FOUND


encoding rcpsp/j30.sm/j3039_3.sm nv: 79292 nc: 169188 enctime: 1.05
encoding rcpsp/j30.sm/j3039_3.sm nv: 25355 nc: 53124 enctime: 0.33
c File: j3039_3.smnaive.wcnf
c optimal
c final solution cost: 54
c CPU time: 0.244271
s OPTIMUM FOUND

c File: j3039_3.sm.wcnf
c optimal
c final solution cost: 54
c CPU time: 0.056392
s OPTIMUM FOUND


encoding rcpsp/j30.sm/j3039_4.sm nv: 81984 nc: 176141 enctime: 1.18
encoding rcpsp/j30.sm/j3039_4.sm nv: 24640 nc: 51853 enctime: 0.28
c File: j3039_4.smnaive.wcnf
c optimal
c final solution cost: 53
c CPU time: 0.336296
s OPTIMUM FOUND

c File: j3039_4.sm.wcnf
c optimal
c final solution cost: 53
c CPU time: 0.053001
s OPTIMUM FOUND


encoding rcpsp/j30.sm/j3039_5.sm nv: 76230 nc: 160542 enctime: 0.99
encoding rcpsp/j30.sm/j3039_5.sm nv: 25872 nc: 53613 enctime: 0.37
c File: j3039_5.smnaive.wcnf
c optimal
c final solution cost: 55
c CPU time: 0.209847
s OPTIMUM FOUND

c File: j3039_5.sm.wcnf
c optimal
c final solution cost: 55
c CPU time: 0.054877
s OPTIMUM FOUND


encoding rcpsp/j30.sm/j3039_6.sm nv: 83536 nc: 182243 enctime: 1.28
encoding rcpsp/j30.sm/j3039_6.sm nv: 31780 nc: 68357 enctime: 0.46
c File: j3039_6.smnaive.wcnf
c optimal
c final solution cost: 69
c CPU time: 0.401300
s OPTIMUM FOUND

c File: j3039_6.sm.wcnf
c optimal
c final solution cost: 69
c CPU time: 0.084846
s OPTIMUM FOUND


encoding rcpsp/j30.sm/j3039_7.sm nv: 50820 nc: 104435 enctime: 0.65
encoding rcpsp/j30.sm/j3039_7.sm nv: 21945 nc: 44585 enctime: 0.25
c File: j3039_7.smnaive.wcnf
c optimal
c final solution cost: 56
c CPU time: 0.154209
s OPTIMUM FOUND

c File: j3039_7.sm.wcnf
c optimal
c final solution cost: 56
c CPU time: 0.050991
s OPTIMUM FOUND


encoding rcpsp/j30.sm/j3039_8.sm nv: 96279 nc: 208548 enctime: 1.52
encoding rcpsp/j30.sm/j3039_8.sm nv: 32572 nc: 69430 enctime: 0.37
c File: j3039_8.smnaive.wcnf
c optimal
c final solution cost: 67
c CPU time: 0.323134
s OPTIMUM FOUND

c File: j3039_8.sm.wcnf
c optimal
c final solution cost: 67
c CPU time: 0.060638
s OPTIMUM FOUND


encoding rcpsp/j30.sm/j3039_9.sm nv: 84606 nc: 179580 enctime: 1.27
encoding rcpsp/j30.sm/j3039_9.sm nv: 32504 nc: 68073 enctime: 0.37
c File: j3039_9.smnaive.wcnf
c optimal
c final solution cost: 64
c CPU time: 0.293181
s OPTIMUM FOUND

c File: j3039_9.sm.wcnf
c optimal
c final solution cost: 64
c CPU time: 0.138920
s OPTIMUM FOUND


encoding rcpsp/j30.sm/j303_9.sm nv: 20670 nc: 50668 enctime: 0.37
encoding rcpsp/j30.sm/j303_9.sm nv: 9100 nc: 21654 enctime: 0.09
c File: j303_9.smnaive.wcnf
c optimal
c final solution cost: 65
c CPU time: 0.101711
s OPTIMUM FOUND

c File: j303_9.sm.wcnf
c optimal
c final solution cost: 65
c CPU time: 0.032508
s OPTIMUM FOUND


encoding rcpsp/j30.sm/j3040_10.sm nv: 88247 nc: 185988 enctime: 1.31
encoding rcpsp/j30.sm/j3040_10.sm nv: 25636 nc: 53019 enctime: 0.32
c File: j3040_10.smnaive.wcnf
c optimal
c final solution cost: 51
c CPU time: 0.281239
s OPTIMUM FOUND

c File: j3040_10.sm.wcnf
c optimal
c final solution cost: 51
c CPU time: 0.057638
s OPTIMUM FOUND


encoding rcpsp/j30.sm/j3040_1.sm nv: 78752 nc: 168879 enctime: 1.12
encoding rcpsp/j30.sm/j3040_1.sm nv: 22256 nc: 46647 enctime: 0.32
c File: j3040_1.smnaive.wcnf
c optimal
c final solution cost: 51
c CPU time: 0.236783
s OPTIMUM FOUND

c File: j3040_1.sm.wcnf
c optimal
c final solution cost: 51
c CPU time: 0.037760
s OPTIMUM FOUND


encoding rcpsp/j30.sm/j3040_2.sm nv: 82560 nc: 173186 enctime: 1.24
encoding rcpsp/j30.sm/j3040_2.sm nv: 27360 nc: 56461 enctime: 0.31
c File: j3040_2.smnaive.wcnf
c optimal
c final solution cost: 56
c CPU time: 0.235951
s OPTIMUM FOUND

c File: j3040_2.sm.wcnf
c optimal
c final solution cost: 56
c CPU time: 0.047462
s OPTIMUM FOUND


encoding rcpsp/j30.sm/j3040_3.sm nv: 96117 nc: 196033 enctime: 1.22
encoding rcpsp/j30.sm/j3040_3.sm nv: 34626 nc: 69755 enctime: 0.46
c File: j3040_3.smnaive.wcnf
c optimal
c final solution cost: 57
c CPU time: 0.239335
s OPTIMUM FOUND

c File: j3040_3.sm.wcnf
c optimal
c final solution cost: 57
c CPU time: 0.074794
s OPTIMUM FOUND


encoding rcpsp/j30.sm/j3040_4.sm nv: 86768 nc: 184239 enctime: 1.34
encoding rcpsp/j30.sm/j3040_4.sm nv: 28594 nc: 59749 enctime: 0.34
c File: j3040_4.smnaive.wcnf
c optimal
c final solution cost: 57
c CPU time: 0.253701
s OPTIMUM FOUND

c File: j3040_4.sm.wcnf
c optimal
c final solution cost: 57
c CPU time: 0.055030
s OPTIMUM FOUND


encoding rcpsp/j30.sm/j3040_5.sm nv: 82948 nc: 176164 enctime: 1.15
encoding rcpsp/j30.sm/j3040_5.sm nv: 30756 nc: 64388 enctime: 0.44
c File: j3040_5.smnaive.wcnf
c optimal
c final solution cost: 65
c CPU time: 0.262885
s OPTIMUM FOUND

c File: j3040_5.sm.wcnf
c optimal
c final solution cost: 65
c CPU time: 0.053970
s OPTIMUM FOUND


encoding rcpsp/j30.sm/j3040_6.sm nv: 80995 nc: 170333 enctime: 1.12
encoding rcpsp/j30.sm/j3040_6.sm nv: 29585 nc: 61365 enctime: 0.39
c File: j3040_6.smnaive.wcnf
c optimal
c final solution cost: 60
c CPU time: 0.283348
s OPTIMUM FOUND

c File: j3040_6.sm.wcnf
c optimal
c final solution cost: 60
c CPU time: 0.056343
s OPTIMUM FOUND


encoding rcpsp/j30.sm/j3040_7.sm nv: 91872 nc: 189883 enctime: 1.26
encoding rcpsp/j30.sm/j3040_7.sm nv: 24816 nc: 50310 enctime: 0.30
c File: j3040_7.smnaive.wcnf
c optimal
c final solution cost: 46
c CPU time: 0.292388
s OPTIMUM FOUND

c File: j3040_7.sm.wcnf
c optimal
c final solution cost: 46
c CPU time: 0.041033
s OPTIMUM FOUND


encoding rcpsp/j30.sm/j3040_8.sm nv: 83304 nc: 175835 enctime: 1.19
encoding rcpsp/j30.sm/j3040_8.sm nv: 27144 nc: 56315 enctime: 0.30
c File: j3040_8.smnaive.wcnf
c optimal
c final solution cost: 57
c CPU time: 0.219312
s OPTIMUM FOUND

c File: j3040_8.sm.wcnf
c optimal
c final solution cost: 57
c CPU time: 0.058167
s OPTIMUM FOUND


encoding rcpsp/j30.sm/j3040_9.sm nv: 87420 nc: 187499 enctime: 1.26
encoding rcpsp/j30.sm/j3040_9.sm nv: 30225 nc: 63761 enctime: 0.37
c File: j3040_9.smnaive.wcnf
c optimal
c final solution cost: 64
c CPU time: 0.269411
s OPTIMUM FOUND

c File: j3040_9.sm.wcnf
c optimal
c final solution cost: 64
c CPU time: 0.053753
s OPTIMUM FOUND


encoding rcpsp/j30.sm/j304_10.sm nv: 23542 nc: 55779 enctime: 0.34
encoding rcpsp/j30.sm/j304_10.sm nv: 7301 nc: 16539 enctime: 0.07
c File: j304_10.smnaive.wcnf
c optimal
c final solution cost: 48
c CPU time: 0.104745
s OPTIMUM FOUND

c File: j304_10.sm.wcnf
c optimal
c final solution cost: 48
c CPU time: 0.014071
s OPTIMUM FOUND


encoding rcpsp/j30.sm/j3041_10.sm nv: 100096 nc: 214449 enctime: 1.41
encoding rcpsp/j30.sm/j3041_10.sm nv: 60928 nc: 129921 enctime: 0.76
c File: j3041_10.smnaive.wcnf
c optimal
c final solution cost: 99
c CPU time: 22.727016
s OPTIMUM FOUND

c File: j3041_10.sm.wcnf
c optimal
c final solution cost: 99
c CPU time: 19.990903
s OPTIMUM FOUND


encoding rcpsp/j30.sm/j3041_1.sm nv: 93879 nc: 199080 enctime: 1.24
encoding rcpsp/j30.sm/j3041_1.sm nv: 52704 nc: 111180 enctime: 0.87
c File: j3041_1.smnaive.wcnf
c optimal
c final solution cost: 86
c CPU time: 2.038856
s OPTIMUM FOUND

c File: j3041_1.sm.wcnf
c optimal
c final solution cost: 86
c CPU time: 0.664797
s OPTIMUM FOUND


encoding rcpsp/j30.sm/j3041_2.sm nv: 99932 nc: 209059 enctime: 1.39
encoding rcpsp/j30.sm/j3041_2.sm nv: 60802 nc: 126704 enctime: 0.90
c File: j3041_2.smnaive.wcnf
c optimal
c final solution cost: 89
c CPU time: 7.086174
s OPTIMUM FOUND

c File: j3041_2.sm.wcnf
c optimal
c final solution cost: 89
c CPU time: 3.049349
s OPTIMUM FOUND


encoding rcpsp/j30.sm/j3041_3.sm nv: 83468 nc: 174861 enctime: 1.03
encoding rcpsp/j30.sm/j3041_3.sm nv: 52574 nc: 109710 enctime: 0.72
c File: j3041_3.smnaive.wcnf
c optimal
c final solution cost: 85
c CPU time: 1.683958
s OPTIMUM FOUND

c File: j3041_3.sm.wcnf
c optimal
c final solution cost: 85
c CPU time: 0.862360
s OPTIMUM FOUND


encoding rcpsp/j30.sm/j3041_4.sm nv: 93024 nc: 192661 enctime: 1.26
encoding rcpsp/j30.sm/j3041_4.sm nv: 57152 nc: 117908 enctime: 0.71
c File: j3041_4.smnaive.wcnf
c optimal
c final solution cost: 78
c CPU time: 2.515602
s OPTIMUM FOUND

c File: j3041_4.sm.wcnf
c optimal
c final solution cost: 78
c CPU time: 1.255094
s OPTIMUM FOUND


encoding rcpsp/j30.sm/j3041_5.sm nv: 117537 nc: 254852 enctime: 1.65
encoding rcpsp/j30.sm/j3041_5.sm nv: 63690 nc: 137300 enctime: 0.96
c File: j3041_5.smnaive.wcnf
c optimal
c final solution cost: 99
c CPU time: 5.529416
s OPTIMUM FOUND

c File: j3041_5.sm.wcnf
c optimal
c final solution cost: 99
c CPU time: 3.369486
s OPTIMUM FOUND


encoding rcpsp/j30.sm/j3041_6.sm nv: 76908 nc: 162163 enctime: 1.08
encoding rcpsp/j30.sm/j3041_6.sm nv: 56695 nc: 119236 enctime: 0.75
c File: j3041_6.smnaive.wcnf
c optimal
c final solution cost: 103
c CPU time: 33.575345
s OPTIMUM FOUND

c File: j3041_6.sm.wcnf
c timeout
c final solution cost: 107
c CPU time: 60.109896
s UNKNOWN


encoding rcpsp/j30.sm/j3041_7.sm nv: 105014 nc: 223505 enctime: 1.56
encoding rcpsp/j30.sm/j3041_7.sm nv: 68663 nc: 145637 enctime: 0.90
c File: j3041_7.smnaive.wcnf
c optimal
c final solution cost: 92
c CPU time: 9.434248
s OPTIMUM FOUND

c File: j3041_7.sm.wcnf
c optimal
c final solution cost: 92
c CPU time: 12.707824
s OPTIMUM FOUND


encoding rcpsp/j30.sm/j3041_8.sm nv: 114204 nc: 242861 enctime: 1.58
encoding rcpsp/j30.sm/j3041_8.sm nv: 58330 nc: 123287 enctime: 0.77
c File: j3041_8.smnaive.wcnf
c optimal
c final solution cost: 88
c CPU time: 17.182500
s OPTIMUM FOUND

c File: j3041_8.sm.wcnf
c optimal
c final solution cost: 88
c CPU time: 18.264589
s OPTIMUM FOUND


encoding rcpsp/j30.sm/j3041_9.sm nv: 91348 nc: 192018 enctime: 1.32
encoding rcpsp/j30.sm/j3041_9.sm nv: 61270 nc: 128352 enctime: 0.78
c File: j3041_9.smnaive.wcnf
c optimal
c final solution cost: 92
c CPU time: 4.045637
s OPTIMUM FOUND

c File: j3041_9.sm.wcnf
c optimal
c final solution cost: 92
c CPU time: 2.450372
s OPTIMUM FOUND


encoding rcpsp/j30.sm/j304_1.sm nv: 24310 nc: 53697 enctime: 0.34
encoding rcpsp/j30.sm/j304_1.sm nv: 8500 nc: 18171 enctime: 0.08
c File: j304_1.smnaive.wcnf
c optimal
c final solution cost: 49
c CPU time: 0.075051
s OPTIMUM FOUND

c File: j304_1.sm.wcnf
c optimal
c final solution cost: 49
c CPU time: 0.015577
s OPTIMUM FOUND


encoding rcpsp/j30.sm/j3042_10.sm nv: 142020 nc: 293134 enctime: 1.91
encoding rcpsp/j30.sm/j3042_10.sm nv: 59964 nc: 122886 enctime: 0.90
c File: j3042_10.smnaive.wcnf
c optimal
c final solution cost: 75
c CPU time: 0.423619
s OPTIMUM FOUND

c File: j3042_10.sm.wcnf
c optimal
c final solution cost: 75
c CPU time: 0.127473
s OPTIMUM FOUND


encoding rcpsp/j30.sm/j3042_1.sm nv: 151226 nc: 307997 enctime: 1.92
encoding rcpsp/j30.sm/j3042_1.sm nv: 53749 nc: 108656 enctime: 0.58
c File: j3042_1.smnaive.wcnf
c optimal
c final solution cost: 58
c CPU time: 0.363337
s OPTIMUM FOUND

c File: j3042_1.sm.wcnf
c optimal
c final solution cost: 58
c CPU time: 0.105887
s OPTIMUM FOUND


encoding rcpsp/j30.sm/j3042_2.sm nv: 140275 nc: 283889 enctime: 1.80
encoding rcpsp/j30.sm/j3042_2.sm nv: 48870 nc: 98150 enctime: 0.62
c File: j3042_2.smnaive.wcnf
c optimal
c final solution cost: 50
c CPU time: 3.328057
s OPTIMUM FOUND

c File: j3042_2.sm.wcnf
c optimal
c final solution cost: 50
c CPU time: 0.158266
s OPTIMUM FOUND


encoding rcpsp/j30.sm/j3042_3.sm nv: 148192 nc: 303347 enctime: 1.91
encoding rcpsp/j30.sm/j3042_3.sm nv: 53046 nc: 107631 enctime: 0.58
c File: j3042_3.smnaive.wcnf
c optimal
c final solution cost: 60
c CPU time: 0.816465
s OPTIMUM FOUND

c File: j3042_3.sm.wcnf
c optimal
c final solution cost: 60
c CPU time: 0.318442
s OPTIMUM FOUND


encoding rcpsp/j30.sm/j3042_4.sm nv: 107240 nc: 217266 enctime: 1.41
encoding rcpsp/j30.sm/j3042_4.sm nv: 39066 nc: 78515 enctime: 0.48
c File: j3042_4.smnaive.wcnf
c optimal
c final solution cost: 49
c CPU time: 1.503022
s OPTIMUM FOUND

c File: j3042_4.sm.wcnf
c optimal
c final solution cost: 49
c CPU time: 0.196435
s OPTIMUM FOUND


encoding rcpsp/j30.sm/j3042_5.sm nv: 145539 nc: 293951 enctime: 1.81
encoding rcpsp/j30.sm/j3042_5.sm nv: 50058 nc: 100311 enctime: 0.66
c File: j3042_5.smnaive.wcnf
c optimal
c final solution cost: 52
c CPU time: 0.353284
s OPTIMUM FOUND

c File: j3042_5.sm.wcnf
c optimal
c final solution cost: 52
c CPU time: 0.142853
s OPTIMUM FOUND


encoding rcpsp/j30.sm/j3042_6.sm nv: 139608 nc: 285991 enctime: 1.89
encoding rcpsp/j30.sm/j3042_6.sm nv: 60663 nc: 123541 enctime: 0.68
c File: j3042_6.smnaive.wcnf
c optimal
c final solution cost: 66
c CPU time: 0.712333
s OPTIMUM FOUND

c File: j3042_6.sm.wcnf
c optimal
c final solution cost: 66
c CPU time: 0.301927
s OPTIMUM FOUND


encoding rcpsp/j30.sm/j3042_7.sm nv: 133875 nc: 276451 enctime: 1.79
encoding rcpsp/j30.sm/j3042_7.sm nv: 51255 nc: 104947 enctime: 0.56
c File: j3042_7.smnaive.wcnf
c optimal
c final solution cost: 66
c CPU time: 0.524557
s OPTIMUM FOUND

c File: j3042_7.sm.wcnf
c optimal
c final solution cost: 66
c CPU time: 0.109688
s OPTIMUM FOUND


